5100 26845
58986 31862
46229 17494
44299 29958
31301 18143
28515 7655
41513 58785
24689 61416
58940 1232
7015 7506
8382 28885
35531 43338
49237 33987
39466 1821
21084 13247
15987 50530
21184 5644
44296 3905
58059 34582
9726 49791
33929 42349
57961 5453
40616 49207
28050 12881
10301 49585
4572 54770
449 65351
23906 23392
62209 31915
4679 39705
57202 1259
37934 59131
62918 52740
11443 36051
52247 56702
42051 29173
41795 24921
34611 20278
21007 41344
9379 20187
1776 29278
32711 11216
39677 58632
13948 4957
44829 2363
54246 59263
45592 34056
21960 37056
29008 13761
48613 5170
41214 16262
54622 18602
43410 64327
7347 49262
38870 25354
13617 23367
16770 3804
26012 25085
39326 13840
6702 7897
41691 53136
33838 35542
50125 17400
6489 41881
44207 31139
18333 16545
25334 4649
16236 4840
6005 12376
13305 43378
940 12475
46426 55111
33887 10950
35835 31047
58742 23247
20370 48961
3210 39919
44372 17805
9633 968
